c pcminimize - minimizing a CNF with respect to propagation completeness by iterative removing of absorbed clauses.
c Petr Kucera, 2016-2021
c Version 2.7, revision 59, git hash 4910a71, date 2024-07-16 20:17:42 +0200
p cnf 771 2114
-38 -251 0
-65 -251 0
251 -252 0
185 -252 0
253 -254 0
65 -254 0
-38 -255 0
-65 -255 0
254 255 -256 0
256 -257 0
-185 -257 0
252 257 -258 0
259 -260 0
53 -260 0
77 -261 0
-53 -261 0
260 261 -262 0
262 -263 0
112 -263 0
53 -264 0
259 -264 0
264 -265 0
-112 -265 0
263 265 -266 0
267 -268 0
170 -268 0
50 -269 0
-170 -269 0
268 269 -270 0
33 -271 0
76 -271 0
177 -271 0
-225 -271 0
271 -272 0
218 -272 0
-225 -273 0
76 -273 0
274 -275 0
-76 -275 0
273 275 -276 0
276 -277 0
177 -277 0
-76 -278 0
225 -278 0
278 -279 0
-177 -279 0
277 279 -280 0
281 -282 0
181 -282 0
-33 -283 0
-181 -283 0
282 283 -284 0
280 -285 0
284 -285 0
285 -286 0
-218 -286 0
272 286 -287 0
55 -288 0
-87 -288 0
-130 -288 0
132 -288 0
-139 -288 0
178 -288 0
-189 -288 0
221 -288 0
289 -293 0
290 -293 0
291 -293 0
292 -293 0
266 -294 0
270 -294 0
287 -294 0
288 -294 0
293 -294 0
294 -296 0
295 -296 0
296 -297 0
72 -297 0
132 -298 0
-139 -298 0
298 -299 0
183 -299 0
300 -301 0
132 -301 0
139 -302 0
-132 -302 0
301 302 -303 0
303 -304 0
-183 -304 0
299 304 -305 0
305 -306 0
292 -306 0
306 -307 0
221 -307 0
-132 -308 0
139 -308 0
-183 -308 0
246 -308 0
308 -309 0
-221 -309 0
307 309 -310 0
311 -313 0
312 -313 0
313 -314 0
87 -314 0
-130 -315 0
177 -315 0
315 -316 0
-87 -316 0
314 316 -317 0
178 -318 0
-189 -318 0
270 -319 0
317 -319 0
318 -319 0
291 -319 0
319 -320 0
289 -320 0
320 -321 0
55 -321 0
248 -322 0
189 -322 0
291 -323 0
-189 -323 0
322 323 -324 0
-50 -325 0
87 -325 0
170 -325 0
-208 -325 0
311 -326 0
312 -326 0
324 -327 0
325 -327 0
326 -327 0
327 -329 0
328 -329 0
329 -330 0
-55 -330 0
321 330 -331 0
33 -332 0
76 -332 0
-225 -332 0
310 -333 0
331 -333 0
332 -333 0
333 -334 0
218 -334 0
292 -336 0
335 -336 0
336 -337 0
221 -337 0
-132 -338 0
246 -338 0
338 -339 0
-221 -339 0
337 339 -340 0
181 -341 0
-183 -341 0
340 -342 0
341 -342 0
281 -342 0
342 -343 0
139 -343 0
132 -344 0
221 -344 0
284 -345 0
344 -345 0
292 -345 0
345 -346 0
290 -346 0
346 -347 0
-139 -347 0
343 347 -348 0
276 -349 0
311 -349 0
312 -349 0
349 -350 0
87 -350 0
280 -351 0
-130 -351 0
351 -352 0
-87 -352 0
350 352 -353 0
270 -354 0
353 -354 0
318 -354 0
291 -354 0
354 -355 0
289 -355 0
355 -356 0
55 -356 0
311 -357 0
312 -357 0
324 -358 0
276 -358 0
325 -358 0
357 -358 0
358 -359 0
328 -359 0
359 -360 0
-55 -360 0
356 360 -361 0
348 -362 0
361 -362 0
362 -363 0
-218 -363 0
334 363 -364 0
53 -365 0
-112 -365 0
-141 -365 0
364 -366 0
365 -366 0
259 -366 0
366 -367 0
-72 -367 0
297 367 -368 0
3 -369 0
-4 -369 0
7 -369 0
-10 -369 0
12 -369 0
-13 -369 0
-15 -369 0
-16 -369 0
-23 -369 0
30 -369 0
32 -369 0
-39 -369 0
42 -369 0
-44 -369 0
-45 -369 0
-48 -369 0
-52 -369 0
-54 -369 0
57 -369 0
-59 -369 0
-67 -369 0
69 -369 0
74 -369 0
78 -369 0
82 -369 0
84 -369 0
98 -369 0
-104 -369 0
-106 -369 0
-107 -369 0
-109 -369 0
-110 -369 0
120 -369 0
-121 -369 0
-125 -369 0
128 -369 0
133 -369 0
-135 -369 0
136 -369 0
137 -369 0
138 -369 0
-144 -369 0
147 -369 0
-151 -369 0
152 -369 0
-155 -369 0
-159 -369 0
-162 -369 0
164 -369 0
167 -369 0
174 -369 0
-175 -369 0
-176 -369 0
-179 -369 0
-180 -369 0
188 -369 0
191 -369 0
-193 -369 0
-198 -369 0
202 -369 0
-210 -369 0
211 -369 0
212 -369 0
-215 -369 0
-224 -369 0
-227 -369 0
-229 -369 0
-232 -369 0
237 -369 0
238 -369 0
250 -369 0
370 -375 0
371 -375 0
372 -375 0
373 -375 0
374 -375 0
258 -376 0
368 -376 0
375 -376 0
-68 -378 0
105 -378 0
378 -379 0
-166 -381 0
-171 -381 0
-182 -381 0
381 -382 0
-9 -384 0
-36 -384 0
58 -384 0
-119 -384 0
-148 -384 0
-154 -384 0
-192 -384 0
207 -384 0
-223 -384 0
-241 -384 0
384 -385 0
90 -387 0
199 -387 0
387 -388 0
11 -390 0
-101 -390 0
149 -390 0
-187 -390 0
-205 -390 0
390 -391 0
1 -393 0
-17 -393 0
-239 -393 0
393 -394 0
-140 -395 0
85 -396 0
396 -397 0
-243 -398 0
197 -399 0
71 -407 0
408 -409 0
53 -409 0
250 -410 0
-53 -410 0
409 410 -411 0
412 -413 0
12 -413 0
-65 -414 0
-12 -414 0
413 414 -415 0
416 -417 0
132 -417 0
-120 -418 0
-132 -418 0
417 418 -419 0
415 -420 0
419 -420 0
420 -421 0
253 -421 0
421 -422 0
15 -422 0
256 -423 0
12 -423 0
251 -424 0
-12 -424 0
423 424 -425 0
425 -426 0
-120 -426 0
335 -426 0
426 -427 0
-15 -427 0
422 427 -428 0
54 -429 0
50 -429 0
430 -431 0
-50 -431 0
429 431 -432 0
9 -433 0
-107 -433 0
-125 -433 0
428 -434 0
432 -434 0
433 -434 0
371 -434 0
434 -436 0
435 -436 0
436 -437 0
7 -437 0
9 -438 0
54 -438 0
438 -439 0
50 -439 0
430 -440 0
9 -440 0
-54 -441 0
-9 -441 0
440 441 -442 0
442 -443 0
-50 -443 0
439 443 -444 0
419 -445 0
253 -445 0
445 -446 0
15 -446 0
-38 -447 0
-120 -447 0
447 -448 0
335 -448 0
448 -449 0
-15 -449 0
446 449 -450 0
94 -451 0
107 -451 0
371 -452 0
-107 -452 0
451 452 -453 0
-12 -454 0
-65 -454 0
444 -456 0
450 -456 0
453 -456 0
454 -456 0
455 -456 0
456 -457 0
-7 -457 0
437 457 -458 0
291 -459 0
292 -459 0
188 -460 0
459 -460 0
460 -462 0
461 -462 0
462 -463 0
159 -463 0
292 -464 0
291 -464 0
464 -465 0
188 -465 0
-246 -466 0
-248 -466 0
466 -467 0
-188 -467 0
465 467 -468 0
468 -469 0
211 -469 0
469 -470 0
-159 -470 0
463 470 -471 0
472 -474 0
473 -474 0
474 -475 0
98 -475 0
-58 -476 0
155 -476 0
476 -477 0
-98 -477 0
475 477 -478 0
179 -479 0
180 -479 0
471 -480 0
478 -480 0
479 -480 0
480 -481 0
218 -481 0
478 -482 0
179 -482 0
482 -483 0
180 -483 0
473 -484 0
179 -484 0
-155 -485 0
-179 -485 0
484 485 -486 0
486 -487 0
472 -487 0
487 -488 0
98 -488 0
-58 -489 0
155 -489 0
179 -489 0
489 -490 0
-98 -490 0
488 490 -491 0
491 -492 0
-180 -492 0
483 492 -493 0
188 -494 0
292 -494 0
494 -495 0
461 -495 0
495 -496 0
159 -496 0
292 -497 0
188 -497 0
-246 -498 0
-188 -498 0
497 498 -499 0
499 -500 0
211 -500 0
500 -501 0
-159 -501 0
496 501 -502 0
493 -503 0
502 -503 0
503 -504 0
291 -504 0
504 -505 0
-218 -505 0
481 505 -506 0
506 -507 0
-189 -507 0
507 -508 0
109 -508 0
461 -509 0
159 -509 0
211 -510 0
-159 -510 0
509 510 -511 0
324 -512 0
511 -512 0
512 -513 0
292 -513 0
513 -514 0
188 -514 0
-159 -515 0
-189 -515 0
211 -515 0
-246 -515 0
-248 -515 0
515 -516 0
-188 -516 0
514 516 -517 0
517 -518 0
478 -518 0
479 -518 0
518 -519 0
218 -519 0
478 -520 0
179 -520 0
520 -521 0
180 -521 0
486 -522 0
98 -522 0
472 -522 0
522 -523 0
-180 -523 0
521 523 -524 0
524 -525 0
324 -525 0
502 -525 0
525 -526 0
-218 -526 0
519 526 -527 0
527 -528 0
-109 -528 0
508 528 -529 0
458 -530 0
529 -530 0
530 -531 0
128 -531 0
486 -532 0
98 -532 0
155 -533 0
179 -533 0
533 -534 0
-98 -534 0
532 534 -535 0
535 -536 0
-189 -536 0
291 -536 0
536 -537 0
109 -537 0
486 -538 0
324 -538 0
98 -538 0
538 -539 0
-109 -539 0
537 539 -540 0
-7 -541 0
-9 -541 0
-12 -541 0
-50 -541 0
-54 -541 0
-58 -541 0
-65 -541 0
-180 -541 0
-218 -541 0
450 -542 0
540 -542 0
502 -542 0
453 -542 0
541 -542 0
455 -542 0
542 -543 0
-128 -543 0
531 543 -544 0
121 -546 0
545 -546 0
546 -547 0
24 -547 0
545 -548 0
121 -548 0
-215 -549 0
-121 -549 0
548 549 -550 0
550 -551 0
-24 -551 0
547 551 -552 0
-3 -553 0
4 -553 0
-10 -553 0
-11 -553 0
16 -553 0
-17 -553 0
-23 -553 0
30 -553 0
32 -553 0
33 -553 0
-36 -553 0
39 -553 0
-42 -553 0
44 -553 0
-45 -553 0
48 -553 0
52 -553 0
55 -553 0
-57 -553 0
-59 -553 0
-67 -553 0
74 -553 0
-76 -553 0
77 -553 0
84 -553 0
90 -553 0
104 -553 0
-105 -553 0
106 -553 0
-110 -553 0
112 -553 0
119 -553 0
-130 -553 0
-133 -553 0
136 -553 0
-138 -553 0
-139 -553 0
141 -553 0
-154 -553 0
164 -553 0
170 -553 0
171 -553 0
-174 -553 0
-175 -553 0
176 -553 0
178 -553 0
-182 -553 0
-183 -553 0
-187 -553 0
193 -553 0
198 -553 0
-199 -553 0
-202 -553 0
-208 -553 0
210 -553 0
-212 -553 0
221 -553 0
224 -553 0
225 -553 0
-229 -553 0
232 -553 0
237 -553 0
-238 -553 0
239 -553 0
241 -553 0
554 -556 0
312 -556 0
555 -556 0
411 -557 0
544 -557 0
552 -557 0
553 -557 0
556 -557 0
557 -558 0
185 -559 0
558 -560 0
559 -560 0
560 -561 0
-87 -562 0
561 -563 0
562 -563 0
563 -564 0
564 -565 0
565 -566 0
243 -566 0
-54 -567 0
84 -567 0
567 -569 0
568 -569 0
569 -570 0
164 -570 0
-84 -571 0
-179 -571 0
571 -572 0
430 -572 0
572 -573 0
-164 -573 0
570 573 -574 0
183 -575 0
189 -575 0
290 -576 0
-189 -576 0
575 576 -577 0
577 -578 0
109 -578 0
290 -580 0
579 -580 0
580 -581 0
-109 -581 0
578 581 -582 0
141 -583 0
182 -583 0
584 -586 0
585 -586 0
583 -587 0
586 -587 0
587 -588 0
229 -588 0
584 -589 0
141 -589 0
110 -590 0
-141 -590 0
589 590 -591 0
591 -592 0
585 -592 0
592 -593 0
182 -593 0
-110 -594 0
138 -594 0
584 -595 0
-138 -595 0
594 595 -596 0
596 -597 0
141 -597 0
110 -598 0
-138 -598 0
598 -599 0
-141 -599 0
597 599 -600 0
600 -601 0
-182 -601 0
593 601 -602 0
602 -603 0
-229 -603 0
588 603 -604 0
10 -605 0
-32 -605 0
53 -605 0
-250 -605 0
606 -608 0
607 -608 0
574 -609 0
582 -609 0
499 -609 0
604 -609 0
605 -609 0
608 -609 0
609 -610 0
39 -610 0
-10 -611 0
30 -611 0
-67 -611 0
188 -611 0
611 -612 0
292 -612 0
612 -613 0
408 -613 0
613 -614 0
32 -614 0
10 -615 0
-250 -615 0
499 -616 0
615 -616 0
616 -617 0
606 -617 0
607 -617 0
617 -618 0
-32 -618 0
614 618 -619 0
53 -620 0
-54 -620 0
84 -620 0
619 -621 0
620 -621 0
621 -622 0
568 -622 0
622 -623 0
164 -623 0
411 -624 0
611 -624 0
292 -624 0
624 -625 0
32 -625 0
10 -626 0
53 -626 0
-250 -626 0
499 -627 0
626 -627 0
627 -628 0
606 -628 0
607 -628 0
628 -629 0
-32 -629 0
625 629 -630 0
630 -631 0
571 -631 0
631 -632 0
430 -632 0
632 -633 0
-164 -633 0
623 633 -634 0
583 -635 0
584 -635 0
635 -636 0
229 -636 0
591 -637 0
182 -637 0
-110 -638 0
141 -638 0
638 -639 0
-182 -639 0
637 639 -640 0
640 -641 0
-229 -641 0
636 641 -642 0
138 -643 0
-189 -643 0
644 -645 0
290 -645 0
634 -646 0
642 -646 0
643 -646 0
645 -646 0
646 -647 0
-39 -647 0
610 647 -648 0
3 -649 0
-4 -649 0
7 -649 0
-9 -649 0
12 -649 0
-13 -649 0
-15 -649 0
17 -649 0
23 -649 0
-24 -649 0
33 -649 0
38 -649 0
42 -649 0
-44 -649 0
45 -649 0
-48 -649 0
50 -649 0
-52 -649 0
55 -649 0
57 -649 0
-58 -649 0
59 -649 0
65 -649 0
-74 -649 0
-76 -649 0
-77 -649 0
94 -649 0
98 -649 0
-104 -649 0
105 -649 0
-106 -649 0
112 -649 0
-119 -649 0
-120 -649 0
121 -649 0
-125 -649 0
-130 -649 0
133 -649 0
-136 -649 0
-139 -649 0
154 -649 0
-155 -649 0
159 -649 0
-162 -649 0
-170 -649 0
-171 -649 0
174 -649 0
-176 -649 0
178 -649 0
-180 -649 0
-193 -649 0
202 -649 0
208 -649 0
211 -649 0
215 -649 0
-218 -649 0
221 -649 0
225 -649 0
-232 -649 0
-237 -649 0
-239 -649 0
-241 -649 0
650 -655 0
651 -655 0
652 -655 0
291 -655 0
335 -655 0
653 -655 0
654 -655 0
312 -655 0
648 -656 0
649 -656 0
655 -656 0
656 -657 0
11 -658 0
36 -658 0
-87 -658 0
175 -658 0
-185 -658 0
187 -658 0
199 -658 0
-210 -658 0
-224 -658 0
238 -658 0
657 -659 0
658 -659 0
659 -660 0
-16 -661 0
660 -662 0
661 -662 0
662 -663 0
-243 -663 0
566 663 -664 0
664 -665 0
665 -667 0
666 -667 0
667 -668 0
668 -669 0
669 -670 0
670 -671 0
102 -671 0
-3 -672 0
4 -672 0
-10 -672 0
-11 -672 0
16 -672 0
-17 -672 0
-23 -672 0
30 -672 0
32 -672 0
33 -672 0
-36 -672 0
39 -672 0
-42 -672 0
44 -672 0
-45 -672 0
48 -672 0
52 -672 0
55 -672 0
-57 -672 0
-59 -672 0
-67 -672 0
74 -672 0
-76 -672 0
77 -672 0
84 -672 0
-87 -672 0
90 -672 0
104 -672 0
-105 -672 0
106 -672 0
-110 -672 0
112 -672 0
119 -672 0
-130 -672 0
-133 -672 0
136 -672 0
-138 -672 0
-139 -672 0
-154 -672 0
164 -672 0
170 -672 0
171 -672 0
-174 -672 0
-175 -672 0
176 -672 0
178 -672 0
-182 -672 0
-183 -672 0
-187 -672 0
193 -672 0
198 -672 0
-199 -672 0
-202 -672 0
-208 -672 0
210 -672 0
-212 -672 0
221 -672 0
224 -672 0
225 -672 0
-229 -672 0
232 -672 0
237 -672 0
-238 -672 0
239 -672 0
241 -672 0
554 -673 0
295 -673 0
312 -673 0
555 -673 0
544 -674 0
411 -674 0
552 -674 0
672 -674 0
673 -674 0
674 -675 0
675 -676 0
676 -677 0
677 -679 0
678 -679 0
679 -680 0
185 -680 0
680 -681 0
681 -682 0
682 -683 0
683 -684 0
684 -685 0
685 -686 0
686 -687 0
687 -688 0
688 -690 0
689 -690 0
690 -691 0
691 -692 0
692 -693 0
243 -693 0
182 -694 0
584 -694 0
694 -695 0
229 -695 0
584 -696 0
182 -696 0
-110 -697 0
-182 -697 0
696 697 -698 0
698 -699 0
-229 -699 0
695 699 -700 0
582 -701 0
39 -701 0
644 -702 0
290 -702 0
-189 -703 0
702 -703 0
703 -704 0
-39 -704 0
701 704 -705 0
700 -706 0
705 -706 0
706 -707 0
138 -707 0
182 -708 0
229 -708 0
709 -710 0
-229 -710 0
708 710 -711 0
582 -712 0
711 -712 0
39 -712 0
712 -713 0
584 -713 0
713 -714 0
-138 -714 0
707 714 -715 0
715 -716 0
141 -716 0
698 -717 0
705 -717 0
717 -718 0
138 -718 0
582 -719 0
39 -719 0
719 -720 0
584 -720 0
709 -720 0
720 -721 0
-138 -721 0
718 721 -722 0
722 -723 0
-229 -723 0
723 -724 0
-141 -724 0
716 724 -725 0
-32 -726 0
53 -726 0
-250 -726 0
606 -727 0
607 -727 0
574 -728 0
725 -728 0
499 -728 0
726 -728 0
727 -728 0
728 -729 0
10 -729 0
620 -730 0
408 -730 0
730 -731 0
568 -731 0
731 -732 0
164 -732 0
411 -733 0
571 -733 0
733 -734 0
430 -734 0
734 -735 0
-164 -735 0
732 735 -736 0
583 -737 0
584 -737 0
737 -738 0
229 -738 0
698 -739 0
295 -739 0
739 -740 0
-229 -740 0
738 740 -741 0
30 -742 0
32 -742 0
-39 -742 0
-67 -742 0
138 -742 0
188 -742 0
-189 -742 0
292 -743 0
644 -743 0
290 -743 0
736 -744 0
741 -744 0
742 -744 0
743 -744 0
744 -745 0
-10 -745 0
729 745 -746 0
3 -747 0
-4 -747 0
7 -747 0
-9 -747 0
11 -747 0
12 -747 0
-13 -747 0
-15 -747 0
17 -747 0
23 -747 0
-24 -747 0
33 -747 0
36 -747 0
38 -747 0
42 -747 0
-44 -747 0
45 -747 0
-48 -747 0
50 -747 0
-52 -747 0
55 -747 0
57 -747 0
-58 -747 0
59 -747 0
65 -747 0
-74 -747 0
-76 -747 0
-77 -747 0
-87 -747 0
94 -747 0
98 -747 0
-104 -747 0
105 -747 0
-106 -747 0
112 -747 0
-119 -747 0
-120 -747 0
121 -747 0
-125 -747 0
-130 -747 0
133 -747 0
-136 -747 0
-139 -747 0
154 -747 0
-155 -747 0
159 -747 0
-162 -747 0
-170 -747 0
-171 -747 0
174 -747 0
175 -747 0
-176 -747 0
178 -747 0
-180 -747 0
-185 -747 0
187 -747 0
-193 -747 0
199 -747 0
202 -747 0
208 -747 0
-210 -747 0
211 -747 0
215 -747 0
-218 -747 0
221 -747 0
225 -747 0
-232 -747 0
-237 -747 0
238 -747 0
-239 -747 0
-241 -747 0
650 -748 0
651 -748 0
291 -748 0
335 -748 0
652 -748 0
653 -748 0
654 -748 0
312 -748 0
746 -749 0
747 -749 0
748 -749 0
749 -750 0
750 -751 0
-16 -752 0
-224 -752 0
751 -753 0
752 -753 0
753 -754 0
-243 -754 0
693 754 -755 0
755 -756 0
756 -758 0
757 -758 0
758 -759 0
759 -760 0
760 -761 0
761 -762 0
-102 -762 0
763 -764 0
-71 -770 0
771 0
-2 0
-5 0
6 0
8 0
14 0
18 0
-19 0
-20 0
21 0
22 0
25 0
-26 0
-28 0
29 0
31 0
34 0
35 0
-37 0
-40 0
41 0
43 0
-46 0
47 0
-49 0
51 0
56 0
60 0
61 0
62 0
63 0
64 0
66 0
-70 0
-73 0
-75 0
79 0
80 0
81 0
83 0
-86 0
88 0
-89 0
-91 0
-92 0
93 0
95 0
96 0
97 0
99 0
-100 0
-103 0
-108 0
111 0
-113 0
114 0
115 0
116 0
117 0
118 0
-122 0
123 0
124 0
126 0
127 0
-129 0
131 0
134 0
-143 0
145 0
150 0
-153 0
156 0
157 0
158 0
-160 0
-163 0
-165 0
168 0
-169 0
-172 0
-173 0
-184 0
186 0
190 0
194 0
195 0
-196 0
200 0
201 0
-203 0
204 0
-206 0
-209 0
-213 0
214 0
216 0
-217 0
219 0
222 0
-226 0
-230 0
231 0
233 0
234 0
-235 0
236 0
-240 0
242 0
-244 0
-245 0
247 0
249 0
-768 769 0
-146 768 0
-767 768 0
-765 766 0
-762 763 0
-760 761 0
-758 759 0
-753 754 0
-746 749 0
-729 746 0
-725 728 0
-724 725 0
-723 724 0
-722 723 0
-720 721 0
-719 720 0
-718 722 0
-717 718 0
-716 725 0
-715 716 0
-710 711 0
-769 770 0
-707 715 0
-706 707 0
-704 705 0
-703 704 0
-702 703 0
-701 705 0
-700 706 0
-698 699 717 739 0
-694 695 0
-693 755 0
-692 693 0
-691 692 0
-690 691 0
-688 690 0
-763 764 0
-686 687 0
-683 684 0
-678 679 0
-675 676 0
-674 675 0
-671 763 0
-102 671 0
-667 668 0
-666 667 0
-665 667 0
-664 665 0
-699 700 0
-661 662 0
-660 662 0
-659 660 0
-658 659 0
-175 658 747 0
-36 658 747 0
-656 657 0
-654 655 748 0
-653 655 748 0
90 653 0
-652 655 748 0
-651 655 748 0
-649 656 0
-154 649 747 0
-59 649 747 0
-742 744 0
-45 649 747 0
-764 765 0
-645 646 0
-644 645 702 743 0
-643 646 0
-642 646 0
-639 640 0
-637 640 0
-634 646 0
-633 634 0
-628 629 0
-627 628 0
-626 627 0
-624 625 0
-623 634 0
-621 622 0
-619 621 0
-618 619 0
-617 618 0
-616 617 0
-615 616 0
-614 619 0
-612 613 0
-609 610 0
-607 608 617 628 727 0
-67 606 0
-605 609 0
-604 609 0
-602 603 0
-600 601 0
-599 600 0
-598 599 0
-596 597 0
-591 592 637 0
-589 591 0
-588 604 0
-229 588 636 695 708 738 0
-586 587 0
-110 584 590 598 0
-583 587 635 737 0
-580 581 0
-579 580 0
-578 582 0
-576 577 0
-575 577 0
-574 609 728 0
164 573 633 735 0
-572 573 0
84 571 0
-569 570 0
-568 569 622 731 0
-567 569 0
-566 664 0
-243 566 693 0
-695 700 0
-565 566 0
-697 698 0
-564 565 0
-563 564 0
-741 744 0
-562 563 0
-558 560 0
-584 586 589 595 635 694 696 713 720 737 0
-555 556 673 0
-13 555 0
-582 609 701 712 719 0
-554 556 673 0
-241 553 672 0
-239 553 672 0
-672 674 0
238 553 672 0
-232 553 672 0
-224 553 672 0
212 553 651 672 0
-210 553 672 0
202 553 672 0
-198 553 652 672 0
-193 553 672 0
-611 612 624 0
-176 553 672 0
-559 560 0
174 553 672 0
-561 563 0
-119 553 672 0
-106 553 672 0
-728 729 0
105 553 672 0
-104 553 672 0
57 553 672 0
-52 553 672 0
-44 553 672 0
42 553 672 0
-39 553 610 672 701 712 719 0
-16 553 672 0
11 553 672 0
199 553 672 0
-4 553 672 0
-552 557 674 0
-549 550 0
-646 647 0
-548 550 0
74 649 747 0
-24 547 0
-546 547 0
-215 545 649 747 0
-121 546 548 649 747 0
-544 557 674 0
-543 544 0
128 543 654 0
-542 543 0
-541 542 0
-540 542 0
-539 540 0
-622 623 0
-535 536 0
-631 632 0
-534 535 0
-533 534 0
-629 630 0
-532 535 0
-530 531 0
-529 530 0
-748 749 0
-527 528 0
-523 524 0
-521 524 0
-517 518 0
-516 517 0
-515 516 0
-685 686 0
-512 513 0
-684 685 0
-511 512 0
-509 511 0
-508 529 0
-109 508 537 578 644 0
-507 508 0
-682 683 0
-505 506 0
-503 504 0
-755 756 0
-680 681 0
-17 649 747 0
-502 503 525 542 0
-679 680 0
-182 583 593 637 694 696 708 709 0
-501 502 0
-677 679 0
-500 501 0
-676 677 0
-499 500 609 616 627 728 0
-496 502 0
-750 751 0
-493 503 0
-491 492 0
-128 369 531 654 0
-271 272 0
220 372 0
-458 530 0
125 369 433 455 649 747 0
-218 272 334 481 519 0
-590 591 0
-120 369 416 0
138 553 585 595 598 672 714 721 0
-289 293 320 355 0
-638 639 0
-630 631 0
-202 369 649 747 0
-98 369 475 488 522 532 538 649 747 0
-603 604 0
-370 375 0
-465 468 0
-650 655 748 0
-451 453 0
-560 561 0
-179 479 482 484 489 520 533 568 0
-557 558 0
-361 362 0
176 369 649 747 0
175 369 553 672 0
30 607 0
-595 596 0
-752 753 0
67 369 553 606 611 672 742 0
-520 521 0
135 369 0
-373 375 0
59 369 553 672 0
54 369 430 441 541 567 620 0
52 369 649 747 0
-743 744 0
45 369 553 672 0
-294 296 0
-460 462 0
-587 588 0
-248 291 322 0
-32 369 553 614 625 672 742 0
-759 760 0
-393 394 0
-383 385 0
188 467 498 516 0
-345 346 0
-162 554 0
-399 400 0
48 369 649 747 0
-462 463 0
-635 636 0
-105 378 649 747 0
-395 397 0
-12 369 413 423 649 747 0
104 369 649 747 0
-197 399 0
-419 420 445 0
-474 475 0
-625 630 0
-528 529 0
-69 369 0
10 369 553 611 672 745 0
-714 715 0
-736 744 0
-3 369 649 747 0
-711 712 0
-366 367 0
-363 364 0
-212 369 651 0
119 384 649 747 0
72 367 0
-353 354 0
-7 369 437 649 747 0
-519 527 0
-344 345 0
-199 387 658 747 0
-482 483 0
-709 710 720 0
-78 369 0
-428 434 0
-42 369 649 747 0
-526 527 0
-346 347 0
-425 426 0
-343 348 0
-525 526 0
-342 343 0
-571 572 631 733 0
-107 451 650 0
-480 481 0
-524 525 0
-340 342 0
-397 398 0
-478 480 482 518 520 0
-375 376 0
-339 340 0
-338 339 0
-471 480 0
-337 340 0
53 261 410 0
-303 304 0
-335 336 426 448 655 748 0
162 369 554 649 747 0
-333 334 0
-522 523 0
101 390 0
-513 514 0
-330 331 0
-328 329 359 0
-761 762 0
187 390 553 672 0
-327 329 0
-647 648 0
-277 280 0
-350 353 0
77 259 649 747 0
-347 348 0
-429 432 0
-258 376 0
-712 713 0
141 295 365 590 599 724 0
-295 296 673 739 0
-355 356 0
-282 284 0
-551 552 0
-368 376 0
-668 669 0
-606 608 617 628 727 0
-302 303 0
-461 462 495 509 0
-300 301 0
-648 656 0
-279 280 0
-260 262 0
-740 741 0
-489 490 0
-730 731 0
106 369 649 747 0
4 369 649 747 0
-276 277 349 358 0
218 286 363 505 526 541 649 747 0
-467 468 0
-272 287 0
-31 369 764 0
-669 670 0
-608 609 0
-299 305 0
-610 648 0
-278 279 0
-510 511 0
-435 436 0
-632 633 0
23 369 553 672 0
-74 369 553 672 0
-494 495 0
177 279 312 0
-85 396 0
-444 456 0
178 328 0
-288 294 0
-273 276 0
-749 750 0
246 292 466 498 515 0
-726 728 0
-269 270 0
-313 314 0
-757 758 0
87 288 316 352 562 658 672 747 0
-268 270 0
-274 275 0
-570 574 0
-48 553 672 0
-613 614 0
-390 391 0
-454 456 0
-504 505 0
-326 327 0
-689 690 0
-306 307 0
-747 749 0
-147 369 0
-732 736 0
109 369 528 539 581 644 0
-318 319 354 0
-585 586 592 0
24 369 551 649 747 0
-55 288 321 356 553 649 672 747 0
76 275 278 553 649 672 747 0
13 369 555 649 747 0
-364 366 0
-139 300 302 308 343 0
-257 258 0
-138 369 585 594 643 707 718 742 0
-744 745 0
-262 263 0
-497 499 0
-57 369 649 747 0
-65 254 412 649 747 0
-187 658 747 0
-320 321 0
-263 266 0
33 281 283 0
-252 258 0
-208 289 649 747 0
-673 674 0
107 369 433 452 650 0
-731 732 0
-309 310 0
-185 252 559 680 0
-436 437 0
-498 499 0
248 291 466 515 0
-450 456 542 0
-267 268 0
-601 602 0
130 288 311 315 351 553 649 672 747 0
-374 375 0
65 251 255 412 414 454 541 0
133 553 672 0
-38 253 649 747 0
-378 379 0
-11 390 658 747 0
-469 470 0
-266 294 0
215 369 545 549 0
-514 517 0
-331 333 0
-1 393 0
38 251 253 255 447 0
-479 480 518 0
-705 706 717 0
-77 259 261 553 672 0
-670 671 0
44 369 649 747 0
-304 305 0
161 370 0
-365 366 0
232 369 649 747 0
-137 369 0
-424 425 0
-708 711 0
139 288 298 300 347 553 649 672 747 0
-369 376 0
-256 257 423 0
-594 596 0
16 369 661 752 0
-733 734 0
237 649 747 0
-403 404 0
-307 310 0
166 381 0
-402 403 0
-280 285 351 0
-181 271 282 332 341 553 649 672 747 0
-739 740 0
50 267 325 431 443 541 0
112 265 365 0
-336 337 0
-265 266 0
-270 294 319 354 0
-149 390 0
-189 322 575 579 0
-754 755 0
121 369 549 0
-170 268 325 553 672 0
-655 656 0
227 369 0
-285 286 0
-360 361 0
-305 306 0
-553 557 0
-15 422 446 0
-225 274 278 553 649 672 747 0
-246 292 308 338 0
55 330 360 0
-430 431 440 572 632 734 0
-82 369 0
-362 363 0
-286 287 0
-427 428 0
-475 478 0
-538 539 0
-254 256 0
-50 267 269 429 439 649 747 0
-486 487 522 532 538 0
-112 263 553 649 672 747 0
-261 262 0
-308 309 0
-556 557 0
15 369 427 449 649 747 0
-348 362 0
-431 432 0
-359 360 0
-713 714 0
-141 295 553 583 589 597 638 716 0
-283 284 0
-356 361 0
-316 317 0
-284 285 345 0
-332 333 0
68 378 0
-334 364 0
-287 294 0
-177 271 277 312 315 0
-319 320 0
-547 552 0
-367 368 0
-301 303 0
-178 288 318 328 553 649 672 747 0
-484 486 0
-221 288 307 337 344 553 649 672 747 0
-492 493 0
-357 358 0
-440 442 0
-251 252 424 0
-329 330 0
-756 758 0
-183 290 299 575 0
181 283 0
7 457 541 0
183 290 304 308 341 553 672 0
-636 642 0
-291 293 319 323 354 459 464 504 536 655 748 0
-737 738 0
-406 407 0
-180 479 483 521 0
-641 642 0
-292 293 306 336 345 459 464 494 497 513 612 624 743 0
-259 260 264 366 0
-211 369 461 469 500 510 515 649 747 0
110 369 553 584 594 638 672 697 0
-314 317 0
-30 369 553 607 611 672 742 0
-293 294 0
-447 448 0
39 369 647 704 742 0
-298 299 0
210 369 658 747 0
221 309 339 0
-640 641 0
-290 293 346 576 580 645 702 743 0
-171 553 672 0
-311 313 326 349 357 0
-738 741 0
-734 735 0
-310 333 0
-404 405 0
-727 728 0
-380 382 0
-87 314 325 350 0
179 369 485 568 571 0
-487 488 0
185 257 658 747 0
-322 324 0
-53 260 264 365 409 605 620 626 726 0
-735 736 0
-405 406 0
12 414 424 454 541 0
-315 316 0
-358 359 0
-354 355 0
-745 746 0
-54 429 430 438 0
-130 311 0
-324 327 358 512 525 538 0
-464 465 0
-264 265 0
144 369 0
151 369 0
-275 276 0
-152 369 0
155 369 473 485 649 747 0
159 369 470 501 510 515 0
-663 664 0
-164 369 553 570 623 672 732 0
-167 369 0
-581 582 0
-174 369 649 747 0
180 369 492 523 541 649 747 0
-592 593 0
-597 600 0
-387 388 0
-687 688 0
-341 342 0
-191 369 0
98 477 490 534 0
-681 682 0
-481 506 0
193 369 649 747 0
-463 471 0
198 369 652 0
-696 698 0
229 369 553 603 641 672 699 710 723 740 0
-237 369 553 672 0
-238 369 658 747 0
-250 369 408 410 0
-94 371 451 649 747 0
-657 659 0
94 371 0
-371 375 434 452 0
-411 557 624 674 733 0
-372 375 0
132 302 308 335 338 418 0
-415 420 0
228 373 0
-392 394 0
-442 443 0
-376 377 0
-325 327 358 0
-255 256 0
-379 380 0
171 381 649 747 0
-10 605 615 626 729 0
182 381 553 601 639 672 697 709 0
-90 387 553 653 672 0
-132 288 298 301 335 344 417 0
36 384 553 672 0
-133 369 649 747 0
250 408 605 615 626 726 0
136 649 747 0
-751 753 0
-58 384 472 0
32 605 618 629 726 0
-317 319 0
-349 350 0
-455 456 542 0
-382 383 0
148 384 0
154 384 553 672 0
-352 353 0
-620 621 730 0
-420 421 0
192 384 0
-537 540 0
-253 254 421 445 0
-312 313 326 349 357 556 655 673 748 0
-531 544 0
-207 384 0
223 384 0
241 384 649 747 0
-384 385 0
-385 386 0
-409 411 0
-536 537 0
-441 442 0
-386 388 0
-33 271 281 332 553 649 672 747 0
-410 411 0
-23 649 747 0
-388 389 0
-389 391 0
-518 519 0
-136 369 553 672 0
-766 767 0
205 390 0
-391 392 0
-573 574 0
239 393 649 747 0
-394 395 0
-296 297 0
140 395 0
-377 379 0
-396 397 0
-434 436 0
243 398 663 754 0
-398 399 0
9 384 441 541 649 747 0
-400 401 0
-662 663 0
-381 382 0
-99 401 665 756 0
-401 402 0
-506 507 0
-125 455 0
146 405 0
-449 450 0
-408 409 613 730 0
-323 324 0
-412 413 0
-188 369 460 465 494 497 514 611 742 0
-413 415 0
-414 415 0
-495 496 0
-445 446 0
189 288 318 323 507 515 536 576 579 643 703 742 0
-321 331 0
-416 417 0
-417 419 0
170 269 649 747 0
27 435 0
-418 419 0
-421 422 0
-422 428 0
-423 425 0
-426 427 0
-351 352 0
-432 434 0
-9 433 438 440 0
-593 602 0
3 553 672 0
-433 434 0
-437 458 0
-438 439 0
-439 444 0
-76 271 273 332 0
-443 444 0
-545 546 548 0
208 289 325 553 672 0
-446 450 0
-577 578 0
-488 491 0
-448 449 0
-142 374 0
-452 453 0
-483 493 0
-453 456 542 0
-456 457 0
-721 722 0
-457 458 0
-459 460 0
-550 551 0
-297 368 0
211 461 0
-159 463 496 509 649 747 0
17 393 553 672 0
-466 467 0
-468 469 0
-470 471 0
58 472 476 489 541 649 747 0
-281 282 342 0
224 369 658 752 0
-472 474 487 522 0
-155 473 476 489 533 0
-473 474 484 0
-476 477 0
225 271 273 274 332 0
-477 478 0
-485 486 0
-490 491 0
